170 127 172 30 184 8 96 28 26 148 158 155 99 100 44 93 154 117 7 72 74 146 166 132 144 199 102 124 101 191 13 150 89 78 52 43 85 29 175 20 141 145 57 41 178 106 81 188 71 179 3 149 187 168 95 62 64 162 39 19 122 68 76 118 156 110 11 61 12 192 79 27 42 75 98 32 121 47 35 46 131 56 10 59 6 185 171 63 137 125 109 164 153 173 5 130 73 198 45 17 129 159 120 2 36 84 60 97 4 66 104 195 94 37 111 174 55 69 157 51 143 161 133 0 25 49 147 82 140 67 115 38 1 134 22 113 114 40 139 33 54 167 165 103 50 136 15 87 31 119 112 58 108 190 77 176 189 34 135 116 107 16 9 142 169 88 90 138 183 160 186 48 181 182 105 83 151 196 86 14 53 18 193 65 152 24 194 92 126 128 197 163 177 123 70 91 23 21 180 80 

